DIMENSION: 12
EDGE_WEIGHT_TYPE: EXPLICIT
EDGE_WEIGHT_FORMAT: FULL_MATRIX
EDGE_WEIGHT_SECTION:
32767 3 32767 78 32767 60 32767 34 32767 45 32767 24 
3 32767 32767 32767 9 39 32767 32767 32767 81 11 45 
32767 32767 32767 32767 65 33 2 32767 32767 32767 32767 79 
78 32767 32767 32767 67 32767 35 68 46 32767 32767 39 
32767 9 65 67 32767 32767 49 94 32767 58 92 9 
60 39 33 32767 32767 32767 32767 32767 32767 78 32767 97 
32767 32767 2 35 49 32767 32767 71 32767 90 32767 39 
34 32767 32767 68 94 32767 71 32767 32767 32767 32767 46 
32767 32767 32767 46 32767 32767 32767 32767 32767 32767 91 82 
45 81 32767 32767 58 78 90 32767 32767 32767 50 80 
32767 11 32767 32767 92 32767 32767 32767 91 50 32767 94 
24 45 79 39 9 97 39 46 82 80 94 32767 
EOF